NAME: instance_495
TYPE: TSP
DIMENSION: 20
EDGE_WEIGHT_TYPE: EUC_2D
NODE_COORD_SECTION
0 1.72 93.05
1 69.95 91.74
2 54.97 28.48
3 83.42 33.11
4 36.31 17.77
5 95.96 17.99
6 4.34 97.78
7 18.52 63.52
8 75.33 83.92
9 21.79 22.37
10 70.65 29.37
11 12.94 19.87
12 91.65 76.12
13 4.60 68.57
14 96.30 41.08
15 57.07 55.34
16 33.00 65.65
17 68.02 74.32
18 60.23 43.16
19 73.19 76.50
EOF
